&CONTROL
   calculation      = 'cp'
   verbosity        = 'low'
   restart_mode     = 'restart'
   iprint           = 1
   outdir           = 'TMP'
   prefix           = 'kc'
   disk_io          = 'high'
   pseudo_dir       = 'pseudopotentials/'
   ndr              = 90
   ndw              = 91
/
&SYSTEM
   ibrav            = 0
   nbnd             = 10
   tot_charge       = 0
   ecutwfc          = 50.0
   nspin            = 2
   do_orbdep        = .true.
   do_ee            = .true.
   nelec            = 18
   nelup            = 9
   neldw            = 9
   ntyp             = 1
   nat              = 3
/
&ELECTRONS
   conv_thr         = 1.8000000000000002e-08
   ortho_para       = 1
   maxiter          = 300
   empty_states_maxstep = 300
   electron_dynamics = 'cg'
   passop           = 2.0
   do_outerloop     = .false.
   do_outerloop_empty = .false.
/
&IONS
   ion_dynamics     = 'none'
   ion_radius(1)    = 1.0
/
&EE
   which_compensation = 'tcc'
/
&NKSIC
   nkscalfact       =  <alpha>
   which_orbdep     = 'nki'
   do_innerloop     = .false.
   esic_conv_thr    = 1.8000000000000002e-08
   do_innerloop_empty = .false.
/

ATOMIC_SPECIES
O 15.999 O_ONCV_PBE-1.2.upf

CELL_PARAMETERS angstrom
8.1738 0.0000 0.0000
0.0000 6.0000 0.0000
0.0000 0.0000 6.6600

ATOMIC_POSITIONS angstrom
O   4.0869  3.0000  2.8900
O   5.1738  3.0000  3.5500
O   3.0000  3.0000  3.5500
